# Solution for model obj
# Objective value = 498
x#1 0
x#2 0
x#3 0
x#4 0
x#5 0
x#6 0
x#7 0
x#8 0
x#9 1
x#10 0
x#11 0
x#12 0
x#13 0
x#14 1
x#15 1
x#16 0
x#17 0
x#18 0
x#19 1
x#20 0
x#21 0
x#22 1
x#23 0
x#24 0
x#25 1
x#26 0
x#27 0
x#28 0
x#29 0
x#30 1
x#31 0
x#32 0
x#33 0
x#34 0
x#35 0
x#36 0
x#37 0
x#38 0
x#39 0
x#40 1
x#41 0
x#42 0
x#43 1
x#44 0
x#45 0
x#46 0
x#47 0
x#48 0
x#49 1
x#50 0
x#51 0
x#52 0
x#53 1
x#54 0
x#55 0
x#56 0
x#57 1
x#58 0
x#59 0
x#60 0
x#61 0
x#62 1
x#63 0
x#64 0
x#65 0
x#66 0
x#67 0
x#68 0
x#69 0
x#70 0
x#71 0
x#72 0
x#73 0
x#74 0
x#75 0
x#76 0
x#77 0
x#78 0
x#79 0
x#80 0
x#81 0
x#82 0
x#83 0
x#84 0
x#85 0
x#86 0
x#87 0
x#88 0
x#89 0
x#90 0
x#91 1
x#92 0
x#93 0
x#94 1
x#95 0
x#96 0
x#97 0
x#98 0
x#99 0
x#100 1
x#101 0
x#102 1
x#103 0
x#104 1
x#105 1
x#106 0
x#107 0
x#108 0
x#109 0
x#110 1
x#111 0
x#112 0
x#113 1
x#114 1
x#115 0
x#116 0
x#117 0
x#118 0
x#119 0
x#120 0
x#121 0
x#122 0
x#123 0
x#124 1
x#125 0
x#126 0
x#127 1
x#128 0
x#129 1
x#130 0
x#131 0
x#132 0
x#133 0
x#134 1
x#135 0
x#136 1
x#137 0
x#138 1
x#139 0
x#140 0
x#141 0
x#142 0
x#143 0
x#144 0
x#145 0
x#146 0
x#147 0
x#148 0
x#149 0
x#150 0
x#151 0
x#152 0
x#153 0
x#154 1
x#155 1
x#156 0
x#157 0
x#158 0
x#159 0
x#160 0
x#161 1
x#162 1
x#163 1
x#164 1
x#165 0
x#166 0
x#167 0
x#168 0
x#169 0
x#170 0
x#171 0
x#172 0
x#173 0
x#174 0
x#175 1
x#176 0
x#177 0
x#178 0
x#179 0
x#180 0
x#181 0
x#182 0
x#183 0
x#184 0
x#185 0
x#186 0
x#187 0
x#188 1
x#189 0
x#190 0
x#191 0
x#192 0
x#193 0
x#194 1
x#195 0
x#196 1
x#197 0
x#198 0
x#199 0
x#200 0
x#201 0
x#202 0
x#203 0
x#204 0
x#205 1
x#206 0
x#207 0
x#208 0
x#209 0
x#210 0
x#211 0
x#212 0
x#213 0
x#214 1
x#215 0
x#216 1
x#217 0
x#218 0
x#219 0
x#220 0
x#221 0
x#222 0
x#223 0
x#224 0
x#225 0
x#226 0
x#227 0
x#228 0
x#229 0
x#230 0
x#231 0
x#232 0
x#233 0
x#234 0
x#235 0
x#236 1
x#237 0
x#238 1
x#239 0
x#240 0
x#241 1
x#242 0
x#243 0
x#244 1
x#245 0
x#246 0
x#247 0
x#248 1
x#249 0
x#250 1
x#251 0
x#252 0
x#253 0
x#254 0
x#255 0
x#256 0
x#257 0
x#258 0
x#259 0
x#260 0
x#261 0
x#262 0
x#263 0
x#264 0
x#265 0
x#266 0
x#267 0
x#268 0
x#269 0
x#270 0
x#271 0
x#272 0
x#273 0
x#274 0
x#275 1
x#276 1
x#277 0
x#278 1
x#279 0
x#280 0
x#281 1
x#282 0
x#283 0
x#284 0
x#285 0
x#286 1
x#287 0
x#288 0
x#289 1
x#290 0
x#291 1
x#292 1
x#293 0
x#294 0
x#295 0
x#296 0
x#297 0
x#298 0
x#299 0
x#300 0
x#301 0
x#302 0
x#303 1
x#304 0
x#305 0
x#306 0
x#307 1
x#308 0
x#309 0
x#310 0
x#311 0
x#312 0
x#313 0
x#314 0
x#315 0
x#316 1
x#317 0
x#318 0
x#319 1
x#320 0
x#321 0
x#322 0
x#323 1
x#324 0
x#325 0
x#326 0
x#327 0
x#328 0
x#329 0
x#330 1
x#331 0
x#332 1
x#333 0
x#334 0
x#335 0
x#336 0
x#337 0
x#338 1
x#339 0
x#340 0
x#341 1
x#342 0
x#343 1
x#344 0
x#345 0
x#346 0
x#347 1
x#348 0
x#349 0
x#350 0
x#351 0
x#352 0
x#353 0
x#354 0
x#355 1
x#356 0
x#357 0
x#358 0
x#359 0
x#360 0
x#361 0
x#362 0
x#363 0
x#364 1
x#365 0
x#366 0
x#367 0
x#368 0
x#369 0
x#370 0
x#371 0
x#372 1
x#373 1
x#374 0
x#375 0
x#376 0
x#377 0
x#378 0
x#379 0
x#380 0
x#381 0
x#382 0
x#383 1
x#384 0
x#385 0
x#386 0
x#387 0
x#388 0
x#389 0
x#390 0
x#391 0
x#392 0
x#393 0
x#394 0
x#395 1
x#396 0
x#397 0
x#398 0
x#399 0
x#400 0
x#401 1
x#402 1
x#403 0
x#404 1
x#405 0
x#406 0
x#407 0
x#408 0
x#409 0
x#410 0
x#411 0
x#412 1
x#413 0
x#414 0
x#415 1
x#416 1
x#417 1
x#418 0
x#419 0
x#420 1
x#421 0
x#422 0
x#423 0
x#424 0
x#425 0
x#426 0
x#427 1
x#428 0
x#429 1
x#430 0
x#431 0
x#432 1
x#433 0
x#434 0
x#435 0
x#436 0
x#437 0
x#438 0
x#439 0
x#440 0
x#441 0
x#442 0
x#443 0
x#444 0
x#445 0
x#446 0
x#447 0
x#448 1
x#449 0
x#450 0
x#451 0
x#452 0
x#453 0
x#454 0
x#455 1
x#456 0
x#457 0
x#458 1
x#459 0
x#460 0
x#461 0
x#462 0
x#463 0
x#464 0
x#465 0
x#466 0
x#467 0
x#468 1
x#469 0
x#470 0
x#471 0
x#472 0
x#473 0
x#474 0
x#475 0
x#476 0
x#477 0
x#478 1
x#479 0
x#480 0
x#481 1
x#482 0
x#483 0
x#484 1
x#485 0
x#486 0
x#487 1
x#488 0
x#489 0
x#490 0
x#491 1
x#492 1
x#493 0
x#494 0
x#495 0
x#496 0
x#497 0
x#498 0
x#499 0
x#500 0
x#501 0
x#502 0
x#503 0
x#504 0
x#505 0
x#506 0
x#507 0
x#508 0
x#509 0
x#510 1
x#511 1
x#512 0
x#513 0
x#514 0
x#515 0
x#516 0
x#517 0
x#518 0
x#519 1
x#520 0
x#521 0
x#522 0
x#523 0
x#524 1
x#525 0
x#526 0
x#527 0
x#528 0
x#529 0
x#530 0
x#531 0
x#532 0
x#533 0
x#534 0
x#535 0
x#536 0
x#537 0
x#538 0
x#539 0
x#540 0
x#541 0
x#542 1
x#543 0
x#544 0
x#545 0
x#546 0
x#547 0
x#548 0
x#549 0
x#550 0
x#551 1
x#552 0
x#553 0
x#554 0
x#555 0
x#556 0
x#557 0
x#558 1
x#559 0
x#560 0
x#561 0
x#562 1
x#563 0
x#564 0
x#565 1
x#566 0
x#567 0
x#568 0
x#569 0
x#570 0
x#571 0
x#572 0
x#573 0
x#574 0
x#575 1
x#576 1
x#577 0
x#578 0
x#579 0
x#580 0
x#581 0
x#582 0
x#583 0
x#584 0
x#585 0
x#586 0
x#587 0
x#588 0
x#589 0
x#590 0
x#591 1
x#592 0
x#593 0
x#594 0
x#595 0
x#596 0
x#597 0
x#598 0
x#599 0
x#600 0
x#601 0
x#602 1
x#603 0
x#604 0
x#605 0
x#606 0
x#607 1
x#608 0
x#609 0
x#610 0
x#611 0
x#612 0
x#613 0
x#614 0
x#615 0
x#616 0
x#617 0
x#618 0
x#619 0
x#620 0
x#621 1
x#622 1
x#623 0
x#624 0
x#625 0
x#626 0
x#627 0
x#628 1
x#629 0
x#630 0
x#631 1
x#632 0
x#633 0
x#634 1
x#635 0
x#636 1
x#637 1
x#638 0
x#639 0
x#640 0
x#641 1
x#642 1
x#643 0
x#644 0
x#645 0
x#646 0
x#647 0
x#648 0
x#649 0
x#650 0
x#651 0
x#652 0
x#653 0
x#654 0
x#655 0
x#656 0
x#657 0
x#658 1
x#659 0
x#660 0
x#661 1
x#662 0
x#663 0
x#664 0
x#665 0
x#666 0
x#667 0
x#668 0
x#669 0
x#670 0
x#671 0
x#672 0
x#673 0
x#674 0
x#675 0
x#676 0
x#677 0
x#678 0
x#679 0
x#680 0
x#681 1
x#682 0
x#683 0
x#684 0
x#685 0
x#686 0
x#687 0
x#688 1
x#689 1
x#690 0
x#691 1
x#692 0
x#693 0
x#694 0
x#695 1
x#696 1
x#697 0
x#698 0
x#699 0
x#700 0
x#701 0
x#702 0
x#703 0
x#704 1
x#705 0
x#706 0
x#707 0
x#708 0
x#709 0
x#710 0
x#711 0
x#712 0
x#713 0
x#714 0
x#715 0
x#716 1
x#717 0
x#718 0
x#719 0
x#720 0
x#721 0
x#722 0
x#723 0
x#724 0
x#725 0
x#726 1
x#727 0
x#728 0
x#729 0
x#730 0
x#731 0
x#732 0
x#733 0
x#734 0
x#735 0
x#736 1
x#737 0
x#738 0
x#739 0
x#740 0
x#741 0
x#742 0
x#743 0
x#744 0
x#745 0
x#746 0
x#747 1
x#748 0
x#749 0
x#750 0
x#751 0
x#752 0
x#753 0
x#754 0
x#755 0
x#756 0
x#757 0
x#758 0
x#759 0
x#760 0
x#761 1
x#762 0
x#763 0
x#764 1
x#765 0
x#766 1
x#767 1
x#768 1
x#769 0
x#770 0
x#771 0
x#772 1
x#773 0
x#774 0
x#775 1
x#776 0
x#777 0
x#778 1
x#779 1
x#780 0
x#781 0
x#782 0
x#783 1
x#784 0
x#785 0
x#786 0
x#787 1
x#788 0
x#789 0
x#790 0
x#791 0
x#792 0
x#793 1
x#794 0
x#795 0
x#796 0
x#797 0
x#798 1
x#799 0
x#800 0
x#801 0
x#802 1
x#803 0
x#804 1
x#805 0
x#806 1
x#807 0
x#808 0
x#809 0
x#810 0
x#811 0
x#812 1
x#813 0
x#814 0
x#815 0
x#816 0
x#817 1
x#818 0
x#819 0
x#820 0
x#821 1
x#822 0
x#823 0
x#824 0
x#825 0
x#826 0
x#827 0
x#828 0
x#829 0
x#830 0
x#831 0
x#832 0
x#833 0
x#834 1
x#835 0
x#836 0
x#837 1
x#838 1
x#839 1
x#840 0
x#841 0
x#842 0
x#843 0
x#844 0
x#845 0
x#846 0
x#847 1
x#848 0
x#849 1
x#850 1
x#851 0
x#852 0
x#853 1
x#854 0
x#855 1
x#856 0
x#857 0
x#858 0
x#859 0
x#860 1
x#861 0
x#862 0
x#863 0
x#864 0
x#865 0
x#866 0
x#867 0
x#868 0
x#869 0
x#870 0
x#871 0
x#872 0
x#873 1
x#874 0
x#875 0
x#876 1
x#877 1
x#878 0
x#879 0
x#880 0
x#881 0
x#882 0
x#883 1
x#884 0
x#885 0
x#886 1
x#887 0
x#888 1
x#889 0
x#890 0
x#891 0
x#892 1
x#893 0
x#894 1
x#895 0
x#896 0
x#897 0
x#898 0
x#899 0
x#900 0
x#901 0
x#902 1
x#903 0
x#904 0
x#905 0
x#906 0
x#907 0
x#908 0
x#909 0
x#910 1
x#911 0
x#912 0
x#913 0
x#914 1
x#915 0
x#916 0
x#917 0
x#918 0
x#919 0
x#920 1
x#921 0
x#922 0
x#923 0
x#924 0
x#925 0
x#926 1
x#927 0
x#928 1
x#929 1
x#930 0
x#931 1
x#932 0
x#933 1
x#934 0
x#935 0
x#936 0
x#937 0
x#938 0
x#939 0
x#940 0
x#941 0
x#942 0
x#943 0
x#944 0
x#945 0
x#946 0
x#947 0
x#948 1
x#949 0
x#950 0
x#951 0
x#952 0
x#953 0
x#954 0
x#955 0
x#956 0
x#957 1
x#958 0
x#959 0
x#960 0
x#961 0
x#962 1
x#963 0
x#964 0
x#965 0
x#966 0
x#967 0
x#968 0
x#969 1
x#970 1
x#971 0
x#972 0
x#973 0
x#974 0
x#975 0
x#976 1
x#977 1
x#978 0
x#979 0
x#980 0
x#981 0
x#982 0
x#983 0
x#984 0
x#985 0
x#986 0
x#987 0
x#988 0
x#989 1
x#990 0
x#991 0
x#992 1
x#993 0
x#994 0
x#995 0
x#996 0
x#997 0
x#998 0
x#999 0
x#1000 1
x#1001 1
x#1002 0
x#1003 0
x#1004 0
x#1005 1
x#1006 1
x#1007 0
x#1008 0
x#1009 0
x#1010 1
x#1011 1
x#1012 1
x#1013 0
x#1014 0
x#1015 1
x#1016 1
x#1017 0
x#1018 0
x#1019 0
x#1020 0
x#1021 1
x#1022 0
x#1023 0
x#1024 1
x#1025 0
x#1026 0
x#1027 0
x#1028 0
x#1029 0
x#1030 0
x#1031 0
x#1032 0
x#1033 1
x#1034 0
x#1035 0
x#1036 0
x#1037 0
x#1038 0
x#1039 0
x#1040 0
x#1041 0
x#1042 0
x#1043 1
x#1044 0
x#1045 0
x#1046 0
x#1047 0
x#1048 0
x#1049 0
x#1050 0
x#1051 0
x#1052 0
x#1053 0
x#1054 0
x#1055 0
x#1056 0
x#1057 0
x#1058 0
x#1059 0
x#1060 0
x#1061 0
x#1062 0
x#1063 0
x#1064 0
x#1065 0
x#1066 0
x#1067 0
x#1068 0
x#1069 0
x#1070 1
x#1071 0
x#1072 0
x#1073 0
x#1074 0
x#1075 0
x#1076 0
x#1077 0
x#1078 0
x#1079 0
x#1080 0
x#1081 0
x#1082 0
x#1083 0
x#1084 1
x#1085 0
x#1086 1
x#1087 0
x#1088 0
x#1089 0
x#1090 1
x#1091 1
x#1092 1
x#1093 0
x#1094 0
x#1095 0
x#1096 1
x#1097 0
x#1098 0
x#1099 0
x#1100 0
x#1101 0
x#1102 0
x#1103 1
x#1104 1
x#1105 0
x#1106 0
x#1107 0
x#1108 0
x#1109 0
x#1110 0
x#1111 1
x#1112 0
x#1113 0
x#1114 0
x#1115 0
x#1116 0
x#1117 0
x#1118 0
x#1119 0
x#1120 0
x#1121 0
x#1122 0
x#1123 0
x#1124 0
x#1125 0
x#1126 0
x#1127 0
x#1128 0
x#1129 1
x#1130 0
x#1131 0
x#1132 1
x#1133 0
x#1134 0
x#1135 0
x#1136 0
x#1137 0
x#1138 0
x#1139 0
x#1140 0
x#1141 1
x#1142 0
x#1143 1
x#1144 0
x#1145 0
x#1146 0
x#1147 1
x#1148 0
x#1149 0
x#1150 1
x#1151 0
x#1152 0
x#1153 0
x#1154 0
x#1155 0
x#1156 0
x#1157 0
x#1158 0
x#1159 0
x#1160 0
x#1161 1
x#1162 0
x#1163 1
x#1164 1
x#1165 0
x#1166 0
x#1167 0
x#1168 0
x#1169 0
x#1170 0
x#1171 0
x#1172 0
x#1173 0
x#1174 0
x#1175 0
x#1176 0
x#1177 0
x#1178 0
x#1179 1
x#1180 1
x#1181 0
x#1182 0
x#1183 1
x#1184 0
x#1185 0
x#1186 0
x#1187 0
x#1188 0
x#1189 0
x#1190 0
x#1191 0
x#1192 0
x#1193 0
x#1194 0
x#1195 0
x#1196 0
x#1197 1
x#1198 0
x#1199 0
x#1200 0
x#1201 0
x#1202 0
x#1203 0
x#1204 0
x#1205 1
x#1206 0
x#1207 0
x#1208 0
x#1209 0
x#1210 1
x#1211 0
x#1212 0
x#1213 0
x#1214 0
x#1215 0
x#1216 0
x#1217 0
x#1218 1
x#1219 1
x#1220 0
x#1221 0
x#1222 1
x#1223 1
x#1224 1
x#1225 0
x#1226 0
x#1227 0
x#1228 0
x#1229 0
x#1230 0
x#1231 1
x#1232 0
x#1233 0
x#1234 0
x#1235 0
x#1236 0
x#1237 1
x#1238 0
x#1239 0
x#1240 0
x#1241 0
x#1242 0
x#1243 0
x#1244 0
x#1245 0
x#1246 0
x#1247 0
x#1248 0
x#1249 0
x#1250 0
x#1251 0
x#1252 0
x#1253 0
x#1254 0
x#1255 0
x#1256 1
x#1257 0
x#1258 0
x#1259 0
x#1260 0
x#1261 0
x#1262 0
x#1263 0
x#1264 0
x#1265 0
x#1266 0
x#1267 0
x#1268 0
x#1269 0
x#1270 0
x#1271 1
x#1272 0
x#1273 0
x#1274 0
x#1275 0
x#1276 0
x#1277 1
x#1278 1
x#1279 0
x#1280 0
x#1281 0
x#1282 0
x#1283 0
x#1284 1
x#1285 0
x#1286 0
x#1287 0
x#1288 0
x#1289 0
x#1290 0
x#1291 0
x#1292 0
x#1293 0
x#1294 0
x#1295 0
x#1296 0
x#1297 0
x#1298 0
x#1299 0
x#1300 0
x#1301 0
x#1302 1
x#1303 0
x#1304 1
x#1305 0
x#1306 1
x#1307 1
x#1308 0
x#1309 1
x#1310 0
x#1311 0
x#1312 0
x#1313 1
x#1314 0
x#1315 0
x#1316 1
x#1317 0
x#1318 0
x#1319 0
x#1320 0
x#1321 1
x#1322 0
x#1323 0
x#1324 1
x#1325 0
x#1326 0
x#1327 0
x#1328 0
x#1329 0
x#1330 0
x#1331 1
x#1332 0
x#1333 0
x#1334 0
x#1335 1
x#1336 1
x#1337 0
x#1338 0
x#1339 0
x#1340 0
x#1341 0
x#1342 0
x#1343 0
x#1344 1
x#1345 0
x#1346 0
x#1347 0
x#1348 0
x#1349 1
x#1350 0
x#1351 0
x#1352 0
x#1353 1
x#1354 0
x#1355 1
x#1356 1
x#1357 0
x#1358 0
x#1359 0
x#1360 0
x#1361 1
x#1362 0
x#1363 1
x#1364 0
x#1365 0
x#1366 1
x#1367 0
x#1368 0
x#1369 0
x#1370 0
x#1371 0
x#1372 1
x#1373 0
x#1374 0
x#1375 0
x#1376 1
x#1377 0
x#1378 0
x#1379 0
x#1380 0
x#1381 0
x#1382 0
x#1383 1
x#1384 0
x#1385 0
x#1386 1
x#1387 1
x#1388 0
x#1389 0
x#1390 0
x#1391 0
x#1392 0
x#1393 0
x#1394 1
x#1395 0
x#1396 0
x#1397 0
x#1398 0
x#1399 0
x#1400 0
x#1401 1
x#1402 0
x#1403 1
x#1404 0
x#1405 1
x#1406 0
x#1407 0
x#1408 1
x#1409 1
x#1410 0
x#1411 1
x#1412 1
x#1413 0
x#1414 0
x#1415 0
x#1416 1
x#1417 1
x#1418 0
x#1419 1
x#1420 0
x#1421 0
x#1422 1
x#1423 0
x#1424 0
x#1425 0
x#1426 1
x#1427 0
x#1428 0
x#1429 0
x#1430 0
x#1431 1
x#1432 1
x#1433 0
x#1434 1
x#1435 0
x#1436 1
x#1437 0
x#1438 0
x#1439 1
x#1440 1
x#1441 0
x#1442 0
x#1443 1
x#1444 0
x#1445 0
x#1446 0
x#1447 0
x#1448 0
x#1449 1
x#1450 0
x#1451 0
x#1452 0
x#1453 0
x#1454 1
x#1455 1
x#1456 0
x#1457 0
x#1458 0
x#1459 0
x#1460 1
x#1461 0
x#1462 1
x#1463 0
x#1464 0
x#1465 0
x#1466 0
x#1467 0
x#1468 0
x#1469 1
x#1470 0
x#1471 0
x#1472 0
x#1473 0
x#1474 0
x#1475 0
x#1476 1
x#1477 0
x#1478 0
x#1479 1
x#1480 0
x#1481 0
x#1482 1
x#1483 0
x#1484 1
x#1485 0
x#1486 0
x#1487 1
x#1488 0
x#1489 0
x#1490 0
x#1491 0
x#1492 0
x#1493 0
x#1494 0
x#1495 0
x#1496 1
x#1497 0
x#1498 0
x#1499 0
x#1500 0
x#1501 1
x#1502 0
x#1503 0
x#1504 0
x#1505 0
x#1506 0
x#1507 0
x#1508 0
x#1509 0
x#1510 0
x#1511 0
x#1512 0
x#1513 0
x#1514 1
x#1515 0
x#1516 0
x#1517 1
x#1518 1
x#1519 0
x#1520 0
x#1521 0
x#1522 1
x#1523 0
x#1524 0
x#1525 1
x#1526 0
x#1527 0
x#1528 0
x#1529 0
x#1530 0
x#1531 0
x#1532 0
x#1533 0
x#1534 0
x#1535 1
x#1536 1
x#1537 0
x#1538 0
x#1539 0
x#1540 0
x#1541 0
x#1542 0
x#1543 0
x#1544 0
x#1545 1
x#1546 0
x#1547 0
x#1548 1
x#1549 0
x#1550 1
x#1551 0
x#1552 0
x#1553 0
x#1554 0
x#1555 0
x#1556 0
x#1557 1
x#1558 0
x#1559 0
x#1560 1
x#1561 0
x#1562 0
x#1563 0
x#1564 1
x#1565 0
x#1566 0
x#1567 0
x#1568 1
x#1569 0
x#1570 0
x#1571 1
x#1572 1
x#1573 0
x#1574 0
x#1575 0
x#1576 0
x#1577 0
x#1578 0
x#1579 0
x#1580 1
x#1581 0
x#1582 0
x#1583 0
x#1584 0
x#1585 0
x#1586 0
x#1587 0
x#1588 0
x#1589 0
x#1590 0
x#1591 0
x#1592 0
x#1593 0
x#1594 0
x#1595 0
x#1596 0
x#1597 0
x#1598 0
x#1599 1
x#1600 0
x#1601 0
x#1602 0
x#1603 0
x#1604 0
x#1605 0
x#1606 0
x#1607 0
x#1608 0
x#1609 0
x#1610 0
x#1611 0
x#1612 0
x#1613 1
x#1614 0
x#1615 1
x#1616 0
x#1617 1
x#1618 0
x#1619 0
x#1620 0
x#1621 0
x#1622 0
x#1623 0
x#1624 0
x#1625 0
x#1626 0
x#1627 0
x#1628 1
x#1629 0
x#1630 0
x#1631 0
x#1632 0
x#1633 0
x#1634 0
x#1635 1
x#1636 0
x#1637 0
x#1638 0
x#1639 1
x#1640 1
x#1641 1
x#1642 0
x#1643 0
x#1644 1
x#1645 0
x#1646 0
x#1647 0
x#1648 0
x#1649 1
x#1650 1
x#1651 1
x#1652 0
x#1653 0
x#1654 0
x#1655 0
x#1656 0
x#1657 0
x#1658 0
x#1659 0
x#1660 0
x#1661 0
x#1662 0
x#1663 0
x#1664 0
x#1665 0
x#1666 0
x#1667 1
x#1668 0
x#1669 0
x#1670 1
x#1671 0
x#1672 1
x#1673 0
x#1674 0
x#1675 1
x#1676 0
x#1677 0
x#1678 0
x#1679 0
x#1680 1
x#1681 0
x#1682 0
x#1683 1
x#1684 0
x#1685 0
x#1686 1
x#1687 0
x#1688 0
x#1689 0
x#1690 0
x#1691 0
x#1692 0
x#1693 0
x#1694 0
x#1695 0
x#1696 0
x#1697 0
x#1698 0
x#1699 0
x#1700 0
x#1701 0
x#1702 0
x#1703 0
x#1704 0
x#1705 0
x#1706 0
x#1707 1
x#1708 0
x#1709 0
x#1710 1
x#1711 1
x#1712 0
x#1713 0
x#1714 0
x#1715 1
x#1716 0
x#1717 0
x#1718 0
x#1719 0
x#1720 0
x#1721 0
x#1722 0
x#1723 0
x#1724 0
x#1725 0
x#1726 0
x#1727 0
x#1728 0
x#1729 0
x#1730 0
x#1731 0
x#1732 0
x#1733 0
x#1734 0
x#1735 0
x#1736 0
x#1737 1
x#1738 0
x#1739 0
x#1740 0
x#1741 0
x#1742 0
x#1743 1
x#1744 0
x#1745 0
x#1746 0
x#1747 0
x#1748 0
x#1749 0
x#1750 0
x#1751 0
x#1752 1
x#1753 0
x#1754 0
x#1755 1
x#1756 0
x#1757 0
x#1758 1
x#1759 1
x#1760 0
x#1761 0
x#1762 0
x#1763 0
x#1764 0
x#1765 1
x#1766 0
x#1767 0
x#1768 1
x#1769 0
x#1770 1
x#1771 0
x#1772 0
x#1773 0
x#1774 0
x#1775 0
x#1776 0
x#1777 0
x#1778 0
x#1779 1
x#1780 0
x#1781 0
x#1782 0
x#1783 1
x#1784 0
x#1785 0
x#1786 0
x#1787 0
x#1788 0
x#1789 0
x#1790 1
x#1791 0
x#1792 0
x#1793 0
x#1794 0
x#1795 0
x#1796 0
x#1797 0
x#1798 1
x#1799 0
x#1800 0
x#1801 1
x#1802 0
x#1803 0
x#1804 0
x#1805 0
x#1806 0
x#1807 0
x#1808 0
x#1809 0
x#1810 0
x#1811 0
x#1812 0
x#1813 1
x#1814 0
x#1815 0
x#1816 1
x#1817 0
x#1818 0
x#1819 0
x#1820 0
x#1821 0
x#1822 0
x#1823 0
x#1824 0
x#1825 0
x#1826 0
x#1827 0
x#1828 0
x#1829 0
x#1830 0
x#1831 0
x#1832 0
x#1833 1
x#1834 0
x#1835 1
x#1836 0
x#1837 0
x#1838 0
x#1839 0
x#1840 1
x#1841 0
x#1842 1
x#1843 0
x#1844 0
x#1845 0
x#1846 0
x#1847 0
x#1848 1
x#1849 0
x#1850 1
x#1851 1
x#1852 0
x#1853 0
x#1854 1
x#1855 0
x#1856 0
x#1857 0
x#1858 1
x#1859 0
x#1860 0
x#1861 0
x#1862 0
x#1863 0
x#1864 0
x#1865 0
x#1866 0
x#1867 1
x#1868 0
x#1869 0
x#1870 0
x#1871 0
x#1872 0
x#1873 0
x#1874 0
x#1875 0
x#1876 1
x#1877 0
x#1878 0
x#1879 1
x#1880 1
x#1881 1
x#1882 0
x#1883 1
x#1884 0
x#1885 0
x#1886 1
x#1887 0
x#1888 1
x#1889 0
x#1890 0
x#1891 1
x#1892 0
x#1893 0
x#1894 1
x#1895 0
x#1896 0
x#1897 0
x#1898 0
x#1899 0
x#1900 0
x#1901 0
x#1902 0
x#1903 0
x#1904 0
x#1905 0
x#1906 0
x#1907 0
x#1908 0
x#1909 0
x#1910 0
x#1911 1
x#1912 0
x#1913 0
x#1914 0
x#1915 1
x#1916 0
x#1917 1
x#1918 0
x#1919 0
x#1920 0
x#1921 0
x#1922 0
x#1923 0
x#1924 1
x#1925 0
x#1926 0
x#1927 0
x#1928 0
x#1929 1
x#1930 0
x#1931 0
x#1932 0
x#1933 0
x#1934 0
x#1935 0
x#1936 1
x#1937 0
x#1938 1
x#1939 0
x#1940 1
x#1941 0
x#1942 0
x#1943 0
x#1944 0
x#1945 0
x#1946 0
x#1947 0
x#1948 0
x#1949 0
x#1950 1
x#1951 1
x#1952 0
x#1953 0
x#1954 0
x#1955 0
x#1956 0
x#1957 0
x#1958 0
x#1959 0
x#1960 0
x#1961 0
x#1962 0
x#1963 0
x#1964 1
x#1965 0
x#1966 0
x#1967 0
x#1968 1
x#1969 1
x#1970 1
x#1971 0
x#1972 0
x#1973 0
x#1974 0
x#1975 0
x#1976 0
x#1977 0
x#1978 0
x#1979 0
x#1980 0
x#1981 0
x#1982 0
x#1983 0
x#1984 0
x#1985 0
x#1986 0
x#1987 0
x#1988 1
x#1989 0
x#1990 0
x#1991 0
x#1992 0
x#1993 0
x#1994 0
x#1995 0
x#1996 0
x#1997 1
x#1998 0
x#1999 0
x#2000 0
x#2001 0
x#2002 0
x#2003 0
x#2004 0
x#2005 1
x#2006 1
x#2007 1
x#2008 0
x#2009 1
x#2010 0
x#2011 0
x#2012 0
x#2013 0
x#2014 0
x#2015 0
x#2016 0
x#2017 0
x#2018 0
x#2019 0
x#2020 0
x#2021 1
x#2022 0
x#2023 1
x#2024 0
x#2025 1
x#2026 0
x#2027 0
x#2028 1
x#2029 0
x#2030 0
x#2031 0
x#2032 1
x#2033 0
x#2034 1
x#2035 0
x#2036 1
x#2037 0
x#2038 0
x#2039 1
x#2040 0
x#2041 0
x#2042 0
x#2043 1
x#2044 0
x#2045 1
x#2046 0
x#2047 0
x#2048 1
x#2049 0
x#2050 0
x#2051 0
x#2052 0
x#2053 0
x#2054 0
x#2055 0
x#2056 0
x#2057 0
x#2058 0
x#2059 0
x#2060 1
x#2061 0
x#2062 1
x#2063 0
x#2064 1
x#2065 0
x#2066 0
x#2067 0
x#2068 0
x#2069 0
x#2070 0
x#2071 1
x#2072 0
x#2073 0
x#2074 0
x#2075 0
x#2076 1
x#2077 1
x#2078 0
x#2079 0
x#2080 0
x#2081 0
x#2082 0
x#2083 0
x#2084 0
x#2085 0
x#2086 0
x#2087 0
x#2088 0
x#2089 0
x#2090 1
x#2091 0
x#2092 0
x#2093 1
x#2094 0
x#2095 0
x#2096 0
x#2097 1
x#2098 0
x#2099 0
x#2100 0
x#2101 0
x#2102 0
x#2103 1
x#2104 0
x#2105 0
x#2106 0
x#2107 1
x#2108 0
x#2109 0
x#2110 1
x#2111 0
x#2112 0
x#2113 0
x#2114 0
x#2115 1
x#2116 0
x#2117 0
x#2118 0
x#2119 1
x#2120 0
x#2121 0
x#2122 1
x#2123 0
x#2124 0
x#2125 0
x#2126 0
x#2127 1
x#2128 0
x#2129 1
x#2130 0
x#2131 0
x#2132 0
x#2133 0
x#2134 1
x#2135 0
x#2136 0
x#2137 0
x#2138 1
x#2139 0
x#2140 0
x#2141 0
x#2142 0
x#2143 0
x#2144 0
x#2145 1
x#2146 0
x#2147 0
x#2148 0
x#2149 0
x#2150 1
x#2151 0
x#2152 0
x#2153 0
x#2154 0
x#2155 0
x#2156 0
x#2157 0
x#2158 0
x#2159 0
x#2160 0
x#2161 0
x#2162 1
x#2163 0
x#2164 0
x#2165 0
x#2166 0
x#2167 0
x#2168 0
x#2169 0
x#2170 0
x#2171 0
x#2172 0
x#2173 0
x#2174 1
x#2175 0
x#2176 1
x#2177 0
x#2178 0
x#2179 0
x#2180 0
x#2181 0
x#2182 0
x#2183 0
x#2184 0
x#2185 0
x#2186 0
x#2187 0
x#2188 0
x#2189 1
x#2190 0
x#2191 0
x#2192 1
x#2193 1
x#2194 0
x#2195 0
x#2196 0
x#2197 0
x#2198 0
x#2199 0
x#2200 0
x#2201 1
x#2202 0
x#2203 1
x#2204 0
x#2205 0
x#2206 0
x#2207 0
x#2208 0
x#2209 0
x#2210 1
x#2211 0
x#2212 0
x#2213 0
x#2214 1
x#2215 0
x#2216 0
x#2217 0
x#2218 0
x#2219 0
x#2220 0
x#2221 1
x#2222 0
x#2223 0
x#2224 0
x#2225 0
x#2226 0
x#2227 1
x#2228 1
x#2229 1
x#2230 1
x#2231 1
x#2232 0
x#2233 0
x#2234 0
x#2235 0
x#2236 1
x#2237 0
x#2238 0
x#2239 0
x#2240 0
x#2241 0
x#2242 0
x#2243 0
x#2244 0
x#2245 0
x#2246 0
x#2247 0
x#2248 0
x#2249 0
x#2250 1
x#2251 0
x#2252 0
x#2253 0
x#2254 0
x#2255 0
x#2256 1
x#2257 1
x#2258 0
x#2259 0
x#2260 1
x#2261 0
x#2262 0
x#2263 0
x#2264 0
x#2265 0
x#2266 1
x#2267 0
x#2268 0
x#2269 0
x#2270 0
x#2271 0
x#2272 0
x#2273 0
x#2274 0
x#2275 0
x#2276 0
x#2277 0
x#2278 0
x#2279 0
x#2280 0
x#2281 0
x#2282 0
x#2283 0
x#2284 0
x#2285 0
x#2286 0
x#2287 0
x#2288 0
x#2289 0
x#2290 1
x#2291 0
x#2292 0
x#2293 0
x#2294 0
x#2295 0
x#2296 0
x#2297 0
x#2298 0
x#2299 0
x#2300 0
x#2301 0
x#2302 0
x#2303 0
x#2304 0
x#2305 0
x#2306 0
x#2307 0
x#2308 0
x#2309 1
x#2310 0
x#2311 0
x#2312 0
x#2313 0
x#2314 0
x#2315 0
x#2316 1
x#2317 0
x#2318 0
x#2319 0
x#2320 0
x#2321 1
x#2322 0
x#2323 0
x#2324 1
x#2325 0
x#2326 1
x#2327 0
x#2328 0
x#2329 0
x#2330 1
x#2331 1
x#2332 0
x#2333 0
x#2334 1
x#2335 0
x#2336 0
x#2337 1
x#2338 0
x#2339 1
x#2340 0
x#2341 1
x#2342 0
x#2343 0
x#2344 1
x#2345 0
x#2346 1
x#2347 0
x#2348 0
x#2349 1
x#2350 0
x#2351 0
x#2352 0
x#2353 1
x#2354 0
x#2355 0
x#2356 0
x#2357 0
x#2358 0
x#2359 0
x#2360 0
x#2361 0
x#2362 1
x#2363 0
x#2364 0
x#2365 0
x#2366 0
x#2367 1
x#2368 0
x#2369 0
x#2370 0
x#2371 1
x#2372 0
x#2373 0
x#2374 0
x#2375 1
x#2376 0
x#2377 0
x#2378 0
x#2379 0
x#2380 0
x#2381 0
x#2382 0
x#2383 0
x#2384 0
x#2385 0
x#2386 1
x#2387 0
x#2388 0
x#2389 0
x#2390 0
x#2391 0
x#2392 0
x#2393 1
x#2394 0
x#2395 0
x#2396 0
x#2397 0
x#2398 0
x#2399 0
x#2400 0
x#2401 0
x#2402 0
x#2403 0
x#2404 0
x#2405 1
x#2406 1
x#2407 0
x#2408 0
x#2409 0
x#2410 1
x#2411 0
x#2412 0
x#2413 0
x#2414 0
x#2415 1
x#2416 0
x#2417 0
x#2418 0
x#2419 0
x#2420 0
x#2421 0
x#2422 0
x#2423 0
x#2424 1
x#2425 0
x#2426 1
x#2427 0
x#2428 0
x#2429 0
x#2430 0
x#2431 0
x#2432 0
x#2433 0
x#2434 0
x#2435 0
x#2436 0
x#2437 0
x#2438 0
x#2439 1
x#2440 1
x#2441 0
x#2442 0
x#2443 0
x#2444 0
x#2445 0
x#2446 0
x#2447 0
x#2448 0
x#2449 0
x#2450 0
x#2451 0
x#2452 0
x#2453 0
x#2454 0
x#2455 0
x#2456 0
x#2457 0
x#2458 0
x#2459 0
x#2460 0
x#2461 0
x#2462 0
x#2463 0
x#2464 0
x#2465 1
x#2466 0
x#2467 0
x#2468 0
x#2469 0
x#2470 0
x#2471 0
x#2472 0
x#2473 0
x#2474 0
x#2475 0
x#2476 0
x#2477 0
x#2478 1
x#2479 0
x#2480 0
x#2481 0
x#2482 0
x#2483 0
x#2484 0
x#2485 0
x#2486 0
x#2487 0
x#2488 0
x#2489 0
x#2490 1
x#2491 0
x#2492 0
x#2493 0
x#2494 1
x#2495 0
x#2496 1
x#2497 0
x#2498 0
x#2499 0
x#2500 0
x#2501 0
x#2502 0
x#2503 0
x#2504 1
x#2505 0
x#2506 0
x#2507 0
x#2508 1
x#2509 0
x#2510 1
x#2511 0
x#2512 0
x#2513 1
x#2514 0
x#2515 0
x#2516 0
x#2517 1
x#2518 0
x#2519 0
x#2520 0
x#2521 0
x#2522 1
x#2523 0
x#2524 0
x#2525 0
x#2526 0
x#2527 0
x#2528 0
x#2529 0
x#2530 0
x#2531 0
x#2532 0
x#2533 0
x#2534 0
x#2535 0
x#2536 0
x#2537 0
x#2538 0
x#2539 1
x#2540 0
x#2541 0
x#2542 1
x#2543 1
x#2544 0
x#2545 0
x#2546 0
x#2547 0
x#2548 0
x#2549 0
x#2550 0
x#2551 0
x#2552 0
x#2553 0
x#2554 0
x#2555 0
x#2556 0
x#2557 1
x#2558 0
x#2559 0
x#2560 0
x#2561 0
x#2562 0
x#2563 0
x#2564 1
x#2565 0
x#2566 0
x#2567 0
x#2568 1
x#2569 0
x#2570 0
x#2571 1
x#2572 0
x#2573 1
x#2574 0
x#2575 0
x#2576 0
x#2577 0
x#2578 0
x#2579 0
x#2580 0
x#2581 0
x#2582 0
x#2583 0
x#2584 0
x#2585 0
x#2586 0
x#2587 0
x#2588 1
x#2589 0
x#2590 0
x#2591 0
x#2592 0
x#2593 0
x#2594 0
x#2595 0
x#2596 0
x#2597 1
x#2598 0
x#2599 1
x#2600 1
x#2601 0
x#2602 0
x#2603 0
x#2604 0
x#2605 1
x#2606 0
x#2607 0
x#2608 0
x#2609 0
x#2610 0
x#2611 0
x#2612 1
x#2613 1
